coords = array2d(1..53, 1..2, [252, 339, 673, 408, 23, 427, 860, 818, 602, 670,
    725, 186, 141, 95, 632, 548, 564, 718, 375, 582, 214, 648, 662,
    813, 627, 650, 92, 480, 315, 416, 558, 523, 389, 260, 971, 680,
    632, 762, 527, 908, 966, 369, 274, 681, 180, 506, 377, 526, 871,
    327, 209, 826, 269, 224, 73, 100, 106, 691, 153, 751, 584, 155,
    396, 602, 985, 527, 846, 245, 422, 881, 939, 350, 586, 842, 418,
    510, 987, 986, 716, 162, 833, 380, 227, 245, 811, 146, 960, 143,
    943, 257, 906, 683, 54, 705, 771, 551, 413, 227, 689, 564, 351,
    781, 707, 346, 854, 327]);

n = 53;

